IVDW=10
Global Parameters
ISTART =  1            (Read existing wavefunction, if there)
ISPIN  =  2            (Non-Spin polarised DFT)
# ICHARG =  11         (Non-self-consistent: GGA/LDA band structures)
LREAL  = .FALSE.       (Projection operators: automatic)
ENCUT  =  400        (Cut-off energy for plane wave basis set, in eV)
PREC   =  Accurate   (Precision level: Normal or Accurate, set Accurate when perform structure lattice relaxation calculation)
LWAVE  = .TRUE.        (Write WAVECAR or not)
LCHARG = .TRUE.        (Write CHGCAR or not)
ADDGRID= .TRUE.        (Increase grid, helps GGA convergence)
LVTOT  = .TRUE.      (Write total electrostatic potential into LOCPOT or not)
LVHAR  = .TRUE.      (Write ionic + Hartree electrostatic potential into LOCPOT or not)
# NELECT =             (No. of electrons: charged cells, be careful)
# LPLANE = .TRUE.      (Real space distribution, supercells)
# NWRITE = 2           (Medium-level output)
# KPAR   = 2           (Divides k-grid into separate groups)
# NGXF    = 300        (FFT grid mesh density for nice charge/potential plots)
# NGYF    = 300        (FFT grid mesh density for nice charge/potential plots)
# NGZF    = 300        (FFT grid mesh density for nice charge/potential plots)
 
Static Calculation
ISMEAR =  0            (gaussian smearing method)
SIGMA  =  0.05         (please check the width of the smearing)
LORBIT =  11           (PAW radii for projected DOS)
NEDOS  =  2001         (DOSCAR points)
NELM   =  200           (Max electronic SCF steps)
EDIFF  =  1E-06        (SCF energy convergence, in eV)
 
DFT+U Calculation
LDAU    = .TRUE.        (Activate DFT+U)
LDAUTYPE=  2            (Dudarev, only U-J matters)
LDAUL   =  2 -1         (Orbitals for each species)
LDAUU   =  2  0         (U for each species)
LDAUJ   =  0.84  0         (J for each species)
LMAXMIX =  4            (Mixing cut-off, 4-d, 6-f)
MAGMOM=-1 1 4*0
NCORE=4


#LDIPOL=.TRUE.
#IDIPOL=3
#EFIELD= 0           (units V/A)
