Generated by VASPKIT code
 1.000000
    3.5935807515613600    0.0000000000000000    0.0000000000000000
   -1.7967903807740391    3.1121322205917523    0.0000000000000000
    0.0000000000000011    0.0000000000000020   18.5093249190866445
   V    S 
     2     4
Direct
    0.0000000000000000    0.0000000000000000    0.3352181933521050     V001
    0.6666666699999979    0.3333333300000020    0.6647818066478950     V002
    0.6666666699999979    0.3333333300000020    0.4300170294638386     S001
    0.6666666699999979    0.3333333300000020    0.2404193572403714     S002
    0.0000000000000000    0.0000000000000000    0.7595806427596286     S003
    0.0000000000000000    0.0000000000000000    0.5699829705361614     S004
